c This is QMaxSAT 2017 based on 14.07
c This is Glucose 3.0
c This is MiniSat 2.2.0
c WARNING: for repeatability, setting FPU to use double precision
c card = mrwto, comp = 0, pmodel = 0, narr = 2, mct = 16, verb = 0
cr firstCPXsol 0 0 0
c top = 214379
c |  Number of variables:    3662                                             |
c |  Number of clauses:      324004                                           |
c |  Weight of hard clauses: 214379                                           |
c |  Number of soft clauses: 480                                              |
c |  Number of unit soft clauses: 480                                         |
c |  Maximum Cardinality (by unit): 428756       (428756      )               |
c last restart ## conflicts  :  39 2006 
o 6157 | cpuTime 0.029102 s
c Sum of weights = 214378
c A number of soft clauses remained = 240
c MRWTO encoding for Pseudo-Boolean Constraints
c sizeMax=6157
c No.0 Divisor=9	generated by pow1
c No.1 Divisor=9	generated by pow1
c No.2 Divisor=9	generated by pow1
c No.3 Divisor=9	generated by pow1
c p0= 9	p1= 9	p2= 9	p3= 9	
c number of digits = 5
c linkingVar[0].size = 9, linkingVar[1].size = 9, linkingVar[2].size = 9, linkingVar[3].size = 9, linkingVar[4].size = 1, 
c Pseudo-Boolean Constraints: 6274 variables and 53596 clauses
c Sum of weights = 214378
c A number of soft clauses remained = 240
c MRWTO encoding for Pseudo-Boolean Constraints
c sizeMax=6157
c No.0 Divisor=9	generated by pow1
c No.1 Divisor=9	generated by pow1
c No.2 Divisor=9	generated by pow1
c No.3 Divisor=9	generated by pow1
c p0= 9	p1= 9	p2= 9	p3= 9	
c number of digits = 5
c linkingVar[0].size = 9, linkingVar[1].size = 9, linkingVar[2].size = 9, linkingVar[3].size = 9, linkingVar[4].size = 1, 
c Pseudo-Boolean Constraints: 6274 variables and 53596 clauses
c last restart ## conflicts  :  166 1510 
o 6082 | cpuTime 0.550481 s
c last restart ## conflicts  :  393 1693 
o 5394 | cpuTime 0.861442 s
c last restart ## conflicts  :  40 3399 
o 5351 | cpuTime 0.871195 s
c last restart ## conflicts  :  815 1680 
o 5239 | cpuTime 1.11828 s
c last restart ## conflicts  :  469 1547 
o 5233 | cpuTime 9.3277 s
c last restart ## conflicts  :  100 1632 
o 5232 | cpuTime 21.7783 s
c last restart ## conflicts  :  51 1494 
o 5199 | cpuTime 23.7098 s
c last restart ## conflicts  :  106 2427 
o 5152 | cpuTime 23.7188 s
c last restart ## conflicts  :  221 1359 
o 5144 | cpuTime 55.3868 s
s OPTIMUM FOUND
cr positiVarArr: [ | 6@1(1->6) | 91@1(6->11) | 161@1(11->1) | 259@2(1->3) | 276@2(2->4) | 290@2(3->2) | 318@2(4->14) | 327@2(5->7) | 361@2(7->9) | 369@2(8->1) | 394@2(9->10) | 412@2(10->12) | 445@2(12->13) | 464@2(13->16) | 479@2(14->15) | 485@2(15->5) | 504@2(16->8) | ]
cr the 1-th chain: [ 1->6->11->1 ] (#non-depot=2) {#cumul.=3}
cr the 2-th chain: [ 1->3->2->4->14->15->5->7->9->10->12->13->16->8->1 ] (#non-depot=13) {#cumul.=16}
c Latest Answer = 0 by 10 loops
c restarts              : 7530
c conflicts             : 1800957        (15381 /sec)
c decisions             : 5885350        (0.00 % random) (50262 /sec)
c propagations          : 735147942      (6278298 /sec)
c conflict literals     : 103715014      (38.26 % deleted)
c Memory used           : 147.00 MB
c CPU time              : 117.094 s
